p cnf 14 23
-14 13 8 0
14 12 10 0
14 -12 -3 0
14 -8 -3 0
14 4 -2 0
13 12 9 0
13 -11 9 0
13 11 -6 0
-13 10 -8 0
13 10 6 0
-13 -9 4 0
13 5 -3 0
12 7 -5 0
-12 4 3 0
11 10 -2 0
-11 -10 2 0
-11 -6 -4 0
11 6 1 0
10 -7 3 0
10 -5 -1 0
-10 4 -2 0
-9 3 2 0
-4 -3 -1 0
